GLPK/data/a8.dat
data;
set NODES := 1 2 3 4 5 6 7 8 ;
param v0 := 1;
param COST_LIMIT := 100;
param score := 1 0
2 36
3 32
4 30
5 34
6 38
7 40
8 42
;
param d : 1 2 3 4 5 6 7 8 :=
1 0 25 34 40 29 24 25 29
2 25 0 16 24 8 8 16 24
3 34 16 0 8 8 24 32 40
4 40 24 8 0 16 32 40 48
5 29 8 8 16 0 16 24 32
6 24 8 24 32 16 0 8 16
7 25 16 32 40 24 8 0 8
8 29 24 40 48 32 16 8 0
;end;