GLPK/solutions/a8.sol
Problem:    orientering_problem
Rows:       91
Columns:    80 (72 integer, 72 binary)
Non-zeros:  500
Status:     INTEGER OPTIMAL
Objective:  obj = 190 (MAXimum)

   No.   Row name        Activity     Lower bound   Upper bound
------ ------------    ------------- ------------- -------------
     1 obj                       190                             
     2 c1[1]                       0            -0             = 
     3 c1[2]                       0            -0             = 
     4 c1[3]                       0            -0             = 
     5 c1[4]                       0            -0             = 
     6 c1[5]                       0            -0             = 
     7 c1[6]                       0            -0             = 
     8 c1[7]                       0            -0             = 
     9 c1[8]                       0            -0             = 
    10 c2[1]                       0            -0             = 
    11 c2[2]                       0            -0             = 
    12 c2[3]                       0            -0             = 
    13 c2[4]                       0            -0             = 
    14 c2[5]                       0            -0             = 
    15 c2[6]                       0            -0             = 
    16 c2[7]                       0            -0             = 
    17 c2[8]                       0            -0             = 
    18 c3                          1             1             = 
    19 c4                          1             1             = 
    20 c5[2]                       1                           1 
    21 c5[3]                       0                           1 
    22 c5[4]                       0                           1 
    23 c5[5]                       1                           1 
    24 c5[6]                       1                           1 
    25 c5[7]                       1                           1 
    26 c5[8]                       1                           1 
    27 c6[2]                       1                           1 
    28 c6[3]                       0                           1 
    29 c6[4]                       0                           1 
    30 c6[5]                       1                           1 
    31 c6[6]                       1                           1 
    32 c6[7]                       1                           1 
    33 c6[8]                       1                           1 
    34 c7                         90                         100 
    35 c8                          1             1             = 
    36 c9[2]                       3             2             8 
    37 c9[3]                       8             2             8 
    38 c9[4]                       2             2             8 
    39 c9[5]                       2             2             8 
    40 c9[6]                       4             2             8 
    41 c9[7]                       5             2             8 
    42 c9[8]                       8             2             8 
    43 c10[2,2]                    0                           6 
    44 c10[2,3]                   -5                           6 
    45 c10[2,4]                    1                           6 
    46 c10[2,5]                    1                           6 
    47 c10[2,6]                    6                           6 
    48 c10[2,7]                   -2                           6 
    49 c10[2,8]                   -5                           6 
    50 c10[3,2]                    5                           6 
    51 c10[3,3]                    0                           6 
    52 c10[3,4]                    6                           6 
    53 c10[3,5]                    6                           6 
    54 c10[3,6]                    4                           6 
    55 c10[3,7]                    3                           6 
    56 c10[3,8]                    0                           6 
    57 c10[4,2]                   -1                           6 
    58 c10[4,3]                   -6                           6 
    59 c10[4,4]                    0                           6 
    60 c10[4,5]                    0                           6 
    61 c10[4,6]                   -2                           6 
    62 c10[4,7]                   -3                           6 
    63 c10[4,8]                   -6                           6 
    64 c10[5,2]                    6                           6 
    65 c10[5,3]                   -6                           6 
    66 c10[5,4]                    0                           6 
    67 c10[5,5]                    0                           6 
    68 c10[5,6]                   -2                           6 
    69 c10[5,7]                   -3                           6 
    70 c10[5,8]                   -6                           6 
    71 c10[6,2]                    1                           6 
    72 c10[6,3]                   -4                           6 
    73 c10[6,4]                    2                           6 
    74 c10[6,5]                    2                           6 
    75 c10[6,6]                    0                           6 
    76 c10[6,7]                    6                           6 
    77 c10[6,8]                   -4                           6 
    78 c10[7,2]                    2                           6 
    79 c10[7,3]                   -3                           6 
    80 c10[7,4]                    3                           6 
    81 c10[7,5]                    3                           6 
    82 c10[7,6]                    1                           6 
    83 c10[7,7]                    0                           6 
    84 c10[7,8]                    4                           6 
    85 c10[8,2]                    5                           6 
    86 c10[8,3]                    0                           6 
    87 c10[8,4]                    6                           6 
    88 c10[8,5]                    6                           6 
    89 c10[8,6]                    4                           6 
    90 c10[8,7]                    3                           6 
    91 c10[8,8]                    0                           6 

   No. Column name       Activity     Lower bound   Upper bound
------ ------------    ------------- ------------- -------------
     1 v[1]         *              1             0             1 
     2 v[2]         *              1             0             1 
     3 v[3]         *              0             0             1 
     4 v[4]         *              0             0             1 
     5 v[5]         *              1             0             1 
     6 v[6]         *              1             0             1 
     7 v[7]         *              1             0             1 
     8 v[8]         *              1             0             1 
     9 x[1,1]       *              0             0             1 
    10 x[1,2]       *              0             0             1 
    11 x[1,3]       *              0             0             1 
    12 x[1,4]       *              0             0             1 
    13 x[1,5]       *              1             0             1 
    14 x[1,6]       *              0             0             1 
    15 x[1,7]       *              0             0             1 
    16 x[1,8]       *              0             0             1 
    17 x[2,1]       *              0             0             1 
    18 x[2,2]       *              0             0             1 
    19 x[2,3]       *              0             0             1 
    20 x[2,4]       *              0             0             1 
    21 x[2,5]       *              0             0             1 
    22 x[2,6]       *              1             0             1 
    23 x[2,7]       *              0             0             1 
    24 x[2,8]       *              0             0             1 
    25 x[3,1]       *              0             0             1 
    26 x[3,2]       *              0             0             1 
    27 x[3,3]       *              0             0             1 
    28 x[3,4]       *              0             0             1 
    29 x[3,5]       *              0             0             1 
    30 x[3,6]       *              0             0             1 
    31 x[3,7]       *              0             0             1 
    32 x[3,8]       *              0             0             1 
    33 x[4,1]       *              0             0             1 
    34 x[4,2]       *              0             0             1 
    35 x[4,3]       *              0             0             1 
    36 x[4,4]       *              0             0             1 
    37 x[4,5]       *              0             0             1 
    38 x[4,6]       *              0             0             1 
    39 x[4,7]       *              0             0             1 
    40 x[4,8]       *              0             0             1 
    41 x[5,1]       *              0             0             1 
    42 x[5,2]       *              1             0             1 
    43 x[5,3]       *              0             0             1 
    44 x[5,4]       *              0             0             1 
    45 x[5,5]       *              0             0             1 
    46 x[5,6]       *              0             0             1 
    47 x[5,7]       *              0             0             1 
    48 x[5,8]       *              0             0             1 
    49 x[6,1]       *              0             0             1 
    50 x[6,2]       *              0             0             1 
    51 x[6,3]       *              0             0             1 
    52 x[6,4]       *              0             0             1 
    53 x[6,5]       *              0             0             1 
    54 x[6,6]       *              0             0             1 
    55 x[6,7]       *              1             0             1 
    56 x[6,8]       *              0             0             1 
    57 x[7,1]       *              0             0             1 
    58 x[7,2]       *              0             0             1 
    59 x[7,3]       *              0             0             1 
    60 x[7,4]       *              0             0             1 
    61 x[7,5]       *              0             0             1 
    62 x[7,6]       *              0             0             1 
    63 x[7,7]       *              0             0             1 
    64 x[7,8]       *              1             0             1 
    65 x[8,1]       *              1             0             1 
    66 x[8,2]       *              0             0             1 
    67 x[8,3]       *              0             0             1 
    68 x[8,4]       *              0             0             1 
    69 x[8,5]       *              0             0             1 
    70 x[8,6]       *              0             0             1 
    71 x[8,7]       *              0             0             1 
    72 x[8,8]       *              0             0             1 
    73 u[1]                        1                             
    74 u[2]                        3                             
    75 u[3]                        8                             
    76 u[4]                        2                             
    77 u[5]                        2                             
    78 u[6]                        4                             
    79 u[7]                        5                             
    80 u[8]                        8                             

Integer feasibility conditions:

KKT.PE: max.abs.err = 0.00e+00 on row 0
        max.rel.err = 0.00e+00 on row 0
        High quality

KKT.PB: max.abs.err = 0.00e+00 on row 0
        max.rel.err = 0.00e+00 on row 0
        High quality

End of output
